100 72656

 555 294
846 845
796 638
658 343
315 310
444 662
319 528
441 540
92 419
179 444
56 685
155 558
672 840
111 236
137 439
232 214
992 85
468 794
732 744
481 85
68 921
814 489
249 65
994 646
323 663
922 627
904 64
518 343
976 939
792 875
432 919
487 352
606 158
429 589
269 491
709 658
537 855
148 463
118 225
850 917
367 313
850 615
66 919
970 859
813 813
370 940
175 466
831 88
588 883
495 303
973 680
114 435
111 682
761 135
439 50
715 432
147 340
35 347
999 646
309 347
538 649
750 245
14 109
374 825
557 799
428 533
728 90
233 296
705 112
563 813
939 589
887 177
726 343
663 660
440 101
502 758
275 629
850 604
76 401
439 28
732 937
860 962
956 537
699 58
289 498
915 297
540 134
891 331
692 249
253 550
126 902
177 941
37 75
410 654
611 834
610 168
127 771
483 503
168 885
592 355
